c uprop, v00.0, 
c reading from data/prog847.c.cnf
c done reading: 0.002575
p cnf 145 547
-71 -75 0
-69 -71 0
69 71 75 0
-60 69 75 0
-60 -69 -75 0
60 69 -75 0
60 -69 75 0
-57 71 0
-55 -57 0
55 57 -71 0
-49 55 -71 0
-49 -55 71 0
49 55 71 0
49 -55 -71 0
-44 57 0
44 -57 0
-39 -57 0
39 57 0
-36 44 0
36 -44 0
-44 -72 0
44 72 0
36 -66 0
-36 66 0
-36 -52 0
36 52 0
66 -77 0
-66 77 0
-66 -79 0
66 79 0
77 -81 0
-77 81 0
-77 -83 0
77 83 0
55 -84 0
75 -84 0
-55 -75 84 0
-55 -75 -86 0
55 75 -86 0
-55 75 86 0
55 -75 86 0
-69 -84 87 0
69 -87 0
84 -87 0
69 84 -87 0
-87 -88 0
69 -87 -88 0
84 -87 -88 0
-69 87 88 0
-84 87 88 0
69 84 -88 0
-55 -87 89 0
55 -89 0
87 -89 0
55 87 -89 0
-89 -91 0
55 -89 -91 0
87 -89 -91 0
-55 89 91 0
-87 89 91 0
55 87 -91 0
-89 93 0
89 -93 0
-62 88 0
-62 75 0
62 -75 -88 0
-59 -75 -88 0
-59 75 88 0
59 75 -88 0
59 -75 88 0
51 -69 -91 0
51 -62 -91 0
51 -62 -69 0
-51 69 91 0
-51 62 91 0
-51 62 69 0
-46 -51 91 0
-46 -51 69 0
-46 -51 62 0
46 51 -91 0
46 51 -69 0
46 51 -62 0
46 -62 -69 -91 0
-46 62 69 91 0
41 -55 -93 0
41 -51 -93 0
41 -51 -55 0
-41 55 93 0
-41 51 93 0
-41 51 55 0
-33 -41 93 0
-33 -41 55 0
-33 -41 51 0
33 41 -93 0
33 41 -55 0
33 41 -51 0
33 -51 -55 -93 0
-33 51 55 93 0
32 -41 0
-32 41 0
-31 46 0
-31 75 0
31 -46 -75 0
-30 -46 -75 0
-30 46 75 0
30 -46 75 0
30 46 -75 0
29 -33 -69 0
29 -31 -33 0
29 -31 -69 0
-29 33 69 0
-29 31 33 0
-29 31 69 0
-28 -29 33 0
-28 -29 69 0
-28 -29 31 0
28 29 -33 0
28 29 -69 0
28 29 -31 0
28 -31 -33 -69 0
-28 31 33 69 0
27 -32 -55 0
27 -29 -32 0
27 -29 -55 0
-27 32 55 0
-27 29 32 0
-27 29 55 0
-26 -27 32 0
-26 -27 55 0
-26 -27 29 0
26 27 -32 0
26 27 -55 0
26 27 -29 0
26 -29 -32 -55 0
-26 29 32 55 0
25 -27 0
-25 27 0
28 -47 0
-47 75 0
-28 47 -75 0
-28 -42 -75 0
28 -42 75 0
-28 42 75 0
28 42 -75 0
-26 37 -69 0
-26 37 -47 0
37 -47 -69 0
26 -37 69 0
26 -37 47 0
-37 47 69 0
26 -34 -37 0
-34 -37 69 0
-34 -37 47 0
-26 34 37 0
34 37 -69 0
34 37 -47 0
-26 34 -47 -69 0
26 -34 47 69 0
-25 -55 0
-25 -37 0
-37 -55 0
-25 64 0
-55 64 0
-37 64 0
-25 -37 -55 64 0
25 37 55 -64 0
-75 -90 0
-69 -90 0
69 75 90 0
-24 69 75 0
-24 -69 -75 0
24 69 -75 0
24 -69 75 0
90 -92 0
-86 -92 0
86 -90 92 0
-23 86 -90 0
-23 -86 90 0
23 86 90 0
23 -86 -90 0
-22 92 0
-22 -59 0
22 59 -92 0
-21 59 -92 0
-21 -59 92 0
21 59 92 0
21 -59 -92 0
-20 22 0
-20 -30 0
20 -22 30 0
-19 -22 30 0
-19 22 -30 0
19 22 30 0
19 -22 -30 0
20 -74 0
-42 -74 0
-20 42 74 0
-20 42 -68 0
20 -42 -68 0
20 42 68 0
-20 -42 68 0
-54 74 0
-34 -54 0
34 54 -74 0
34 -61 -74 0
-34 -61 74 0
34 61 74 0
-34 61 -74 0
54 -58 0
-58 -64 0
-54 58 64 0
-50 -54 64 0
-50 54 -64 0
50 54 64 0
50 -54 -64 0
-45 58 0
45 -58 0
-40 -58 0
40 58 0
45 -94 0
-45 94 0
-45 -76 0
45 76 0
-70 94 0
70 -94 0
-56 -94 0
56 94 0
70 -95 0
-70 95 0
-70 -96 0
70 96 0
95 -97 0
-95 97 0
-95 -98 0
95 98 0
97 -99 0
-97 99 0
-97 -100 0
97 100 0
-101 -102 0
-102 -103 0
101 102 103 0
101 103 -104 0
-101 -103 -104 0
-101 103 104 0
101 -103 104 0
102 -106 0
-105 -106 0
-102 105 106 0
-102 105 -107 0
102 -105 -107 0
102 105 107 0
-102 -105 107 0
106 -108 0
-106 108 0
-106 -109 0
106 109 0
108 -110 0
-108 110 0
-108 -111 0
108 111 0
110 -112 0
-110 112 0
-110 -113 0
110 113 0
112 -114 0
-112 114 0
-112 -115 0
112 115 0
114 -116 0
-114 116 0
-114 -117 0
114 117 0
103 -118 0
101 -118 0
-101 -103 118 0
-101 -103 -119 0
101 103 -119 0
101 -103 119 0
-101 103 119 0
-103 -105 120 0
-105 -118 120 0
-103 -118 120 0
103 105 -120 0
105 118 -120 0
103 118 -120 0
105 -120 -121 0
103 -120 -121 0
118 -120 -121 0
-105 120 121 0
-103 120 121 0
-118 120 121 0
-103 -105 -118 121 0
103 105 118 -121 0
-105 -120 122 0
105 -122 0
120 -122 0
105 120 -122 0
-122 -123 0
105 -122 -123 0
120 -122 -123 0
-105 122 123 0
-120 122 123 0
105 120 -123 0
-122 124 0
122 -124 0
-73 123 0
-73 101 0
73 -101 -123 0
-67 -101 -123 0
-67 101 123 0
67 101 -123 0
67 -101 123 0
53 -103 -124 0
53 -73 -124 0
53 -73 -103 0
-53 103 124 0
-53 73 124 0
-53 73 103 0
-53 -78 124 0
-53 -78 103 0
-53 73 -78 0
53 78 -124 0
53 78 -103 0
53 -73 78 0
-73 78 -103 -124 0
73 -78 103 124 0
-53 80 -105 0
-80 105 0
53 -80 0
53 -80 105 0
-80 -82 0
-80 -82 105 0
53 -80 -82 0
80 82 -105 0
-53 80 82 0
53 -82 105 0
-80 85 0
80 -85 0
78 -125 0
101 -125 0
-78 -101 125 0
-78 -101 -126 0
78 101 -126 0
-78 101 126 0
78 -101 126 0
-82 -103 127 0
-82 -125 127 0
-103 -125 127 0
82 103 -127 0
82 125 -127 0
103 125 -127 0
82 -127 -128 0
103 -127 -128 0
125 -127 -128 0
-82 127 128 0
-103 127 128 0
-125 127 128 0
-82 -103 -125 128 0
82 103 125 -128 0
-85 -105 129 0
-85 -127 129 0
-105 -127 129 0
85 105 -129 0
85 127 -129 0
105 127 -129 0
85 -129 -130 0
105 -129 -130 0
127 -129 -130 0
-85 129 130 0
-105 129 130 0
-127 129 130 0
-85 -105 -127 130 0
85 105 127 -130 0
63 -129 0
-63 129 0
128 -131 0
101 -131 0
-101 -128 131 0
-101 -128 -132 0
101 128 -132 0
101 -128 132 0
-101 128 132 0
-103 -130 133 0
-130 -131 133 0
-103 -131 133 0
103 130 -133 0
130 131 -133 0
103 131 -133 0
130 -133 -134 0
103 -133 -134 0
131 -133 -134 0
-130 133 134 0
-103 133 134 0
-131 133 134 0
-103 -130 -131 134 0
103 130 131 -134 0
-63 -105 0
-63 -133 0
-105 -133 0
-63 135 0
-105 135 0
-133 135 0
-63 -105 -133 135 0
63 105 133 -135 0
-101 -136 0
-119 -136 0
101 119 136 0
101 119 -137 0
-101 -119 -137 0
-101 119 137 0
101 -119 137 0
136 -138 0
-121 -138 0
121 -136 138 0
121 -136 -139 0
-121 136 -139 0
121 136 139 0
-121 -136 139 0
138 -140 0
-67 -140 0
67 -138 140 0
67 -138 -141 0
-67 138 -141 0
67 138 141 0
-67 -138 141 0
140 -142 0
-126 -142 0
126 -140 142 0
-48 126 -140 0
-48 -126 140 0
48 126 140 0
48 -126 -140 0
-43 142 0
-43 -132 0
43 132 -142 0
-38 132 -142 0
-38 -132 142 0
38 132 142 0
38 -132 -142 0
-35 43 0
-35 -134 0
35 -43 134 0
-43 134 -143 0
43 -134 -143 0
43 134 143 0
-43 -134 143 0
35 -65 0
-65 -135 0
-35 65 135 0
-35 135 -144 0
35 -135 -144 0
35 135 144 0
-35 -135 144 0
65 -145 0
-65 145 0
-18 -65 0
18 65 0
-17 145 0
17 -145 0
-16 -145 0
16 145 0
-15 17 0
15 -17 0
-14 -17 0
14 17 0
-13 15 0
13 -15 0
-12 -15 0
12 15 0
-11 13 0
11 -13 0
-10 -13 0
10 13 0
-9 11 0
9 -11 0
-8 -11 0
8 11 0
-7 75 0
-7 101 0
7 -75 -101 0
-75 -101 0
75 101 0
6 -69 -119 0
6 -7 -69 0
6 -7 -119 0
-6 69 119 0
-6 7 69 0
-6 7 119 0
-6 69 0
-6 119 0
-6 7 0
7 69 119 0
5 -86 -121 0
5 -6 -86 0
5 -6 -121 0
-5 86 121 0
-5 6 86 0
-5 6 121 0
-5 86 0
-5 121 0
-5 6 0
6 86 121 0
4 -59 -67 0
4 -5 -59 0
4 -5 -67 0
-4 59 67 0
-4 5 59 0
-4 5 67 0
-4 59 0
-4 67 0
-4 5 0
5 59 67 0
3 -30 -126 0
3 -4 -30 0
3 -4 -126 0
-3 30 126 0
-3 4 30 0
-3 4 126 0
-3 30 0
-3 126 0
-3 4 0
4 30 126 0
2 -42 -132 0
2 -3 -42 0
2 -3 -132 0
-2 42 132 0
-2 3 42 0
-2 3 132 0
-2 42 0
-2 132 0
-2 3 0
3 42 132 0
1 -34 -134 0
1 -2 -34 0
1 -2 -134 0
-1 34 134 0
-1 2 34 0
-1 2 134 0
-1 34 0
-1 134 0
-1 2 0
2 34 134 0
-64 -135 0
-1 -64 0
-1 -135 0
1 64 135 0
